p cnf 314 2541
78 125 158 187 0
70 72 74 170 274 0
135 165 178 185 186 0
63 120 147 150 180 0
138 141 199 0
124 130 134 164 208 279 0
95 119 173 189 0
56 175 193 201 202 0
54 88 206 0
151 210 215 236 288 0
132 146 196 216 218 0
157 161 219 220 0
177 195 204 223 0
116 118 128 167 0
112 115 152 255 0
99 104 106 110 140 0
97 122 137 155 160 310 312 0
91 92 96 190 191 0
86 89 90 0
82 83 84 212 0
79 80 81 131 144 0
71 73 75 77 176 203 0
65 67 69 0
64 117 182 183 0
114 149 179 0
61 62 101 108 142 0
57 58 59 60 0
55 93 172 0
53 87 198 0
85 207 224 225 227 0
148 211 228 229 230 0
232 233 234 235 0
238 239 240 0
168 241 243 244 245 0
153 154 246 0
107 111 113 248 250 251 0
100 105 127 133 0
123 156 252 254 257 0
259 260 262 0
264 265 266 267 268 0
145 213 0
269 271 0
76 171 272 0
188 273 0
109 169 181 275 0
200 276 277 0
163 209 278 280 0
174 231 281 282 0
205 217 283 0
162 222 284 0
237 285 287 289 0
242 290 0
247 291 292 0
194 249 293 0
294 295 296 0
98 129 297 298 0
256 299 300 0
-74 -301 0
-74 -135 0
-74 -120 0
-74 -134 0
-74 -119 0
-135 -301 0
-120 -301 0
-134 -301 0
-119 -301 0
-120 -135 0
-134 -135 0
-119 -135 0
-120 -134 0
-119 -120 0
-119 -134 0
-151 -302 0
-146 -302 0
-219 -302 0
-177 -302 0
-302 -303 0
-146 -151 0
-151 -219 0
-151 -177 0
-151 -303 0
-146 -219 0
-146 -177 0
-146 -303 0
-177 -219 0
-219 -303 0
-177 -303 0
-110 -137 0
-110 -253 0
-110 -190 0
-110 -304 0
-84 -110 0
-137 -253 0
-137 -190 0
-137 -304 0
-84 -137 0
-190 -253 0
-253 -304 0
-84 -253 0
-190 -304 0
-84 -190 0
-84 -304 0
-77 -305 0
-62 -305 0
-143 -305 0
-62 -77 0
-77 -143 0
-62 -143 0
-85 -198 0
-198 -232 0
-198 -306 0
-85 -232 0
-85 -306 0
-232 -306 0
-76 -307 0
-74 -302 0
-74 -110 0
-74 -305 0
-74 -198 0
-110 -302 0
-302 -305 0
-198 -302 0
-110 -305 0
-110 -198 0
-198 -305 0
-151 -301 0
-137 -301 0
-77 -301 0
-85 -301 0
-137 -151 0
-77 -151 0
-85 -151 0
-77 -137 0
-85 -137 0
-77 -85 0
-135 -146 0
-135 -253 0
-135 -307 0
-146 -253 0
-146 -307 0
-253 -307 0
-120 -219 0
-120 -190 0
-76 -120 0
-190 -219 0
-76 -219 0
-76 -190 0
-134 -177 0
-134 -304 0
-62 -134 0
-134 -232 0
-177 -304 0
-62 -177 0
-177 -232 0
-62 -304 0
-232 -304 0
-62 -232 0
-119 -303 0
-84 -119 0
-119 -143 0
-119 -306 0
-84 -303 0
-143 -303 0
-303 -306 0
-84 -143 0
-84 -306 0
-143 -306 0
-72 -158 0
-68 -158 0
-150 -158 0
-130 -158 0
-56 -158 0
-68 -72 0
-72 -150 0
-72 -130 0
-56 -72 0
-68 -150 0
-68 -130 0
-56 -68 0
-130 -150 0
-56 -150 0
-56 -130 0
-54 -226 0
-54 -210 0
-54 -157 0
-54 -223 0
-54 -167 0
-210 -226 0
-157 -226 0
-223 -226 0
-167 -226 0
-157 -210 0
-210 -223 0
-167 -210 0
-157 -223 0
-157 -167 0
-167 -223 0
-106 -255 0
-255 -310 0
-96 -255 0
-255 -261 0
-144 -255 0
-106 -310 0
-96 -106 0
-106 -261 0
-106 -144 0
-96 -310 0
-261 -310 0
-144 -310 0
-96 -261 0
-96 -144 0
-144 -261 0
-270 -308 0
-176 -308 0
-108 -308 0
-60 -308 0
-176 -270 0
-108 -270 0
-60 -270 0
-108 -176 0
-60 -176 0
-60 -108 0
-241 -246 0
-241 -248 0
-241 -309 0
-241 -264 0
-246 -248 0
-246 -309 0
-246 -264 0
-248 -309 0
-248 -264 0
-264 -309 0
-121 -136 0
-136 -276 0
-121 -276 0
-54 -158 0
-158 -255 0
-158 -308 0
-158 -241 0
-136 -158 0
-54 -255 0
-54 -308 0
-54 -241 0
-54 -136 0
-255 -308 0
-241 -255 0
-136 -255 0
-241 -308 0
-136 -308 0
-136 -241 0
-72 -226 0
-72 -106 0
-72 -270 0
-72 -246 0
-72 -121 0
-106 -226 0
-226 -270 0
-226 -246 0
-121 -226 0
-106 -270 0
-106 -246 0
-106 -121 0
-246 -270 0
-121 -270 0
-121 -246 0
-68 -210 0
-68 -310 0
-68 -176 0
-68 -248 0
-68 -276 0
-210 -310 0
-176 -210 0
-210 -248 0
-210 -276 0
-176 -310 0
-248 -310 0
-276 -310 0
-176 -248 0
-176 -276 0
-248 -276 0
-150 -157 0
-96 -150 0
-96 -157 0
-130 -223 0
-130 -261 0
-108 -130 0
-130 -309 0
-223 -261 0
-108 -223 0
-223 -309 0
-108 -261 0
-261 -309 0
-108 -309 0
-56 -167 0
-56 -144 0
-56 -60 0
-56 -264 0
-144 -167 0
-60 -167 0
-167 -264 0
-60 -144 0
-144 -264 0
-60 -264 0
-102 -125 0
-125 -165 0
-125 -180 0
-125 -164 0
-125 -175 0
-102 -165 0
-102 -180 0
-102 -164 0
-102 -175 0
-165 -180 0
-164 -165 0
-165 -175 0
-164 -180 0
-175 -180 0
-164 -175 0
-88 -236 0
-88 -196 0
-88 -161 0
-88 -195 0
-88 -128 0
-196 -236 0
-161 -236 0
-195 -236 0
-128 -236 0
-161 -196 0
-195 -196 0
-128 -196 0
-161 -195 0
-128 -161 0
-128 -195 0
-152 -312 0
-152 -258 0
-152 -191 0
-152 -263 0
-81 -152 0
-258 -312 0
-191 -312 0
-263 -312 0
-81 -312 0
-191 -258 0
-258 -263 0
-81 -258 0
-191 -263 0
-81 -191 0
-81 -263 0
-93 -207 0
-93 -228 0
-93 -214 0
-207 -228 0
-207 -214 0
-214 -228 0
-113 -243 0
-105 -243 0
-156 -243 0
-105 -113 0
-113 -156 0
-105 -156 0
-256 -311 0
-88 -125 0
-125 -152 0
-93 -125 0
-125 -243 0
-88 -152 0
-88 -93 0
-88 -243 0
-93 -152 0
-152 -243 0
-93 -243 0
-102 -236 0
-102 -312 0
-102 -207 0
-102 -113 0
-236 -312 0
-207 -236 0
-113 -236 0
-207 -312 0
-113 -312 0
-113 -207 0
-165 -196 0
-165 -258 0
-165 -228 0
-105 -165 0
-196 -258 0
-196 -228 0
-105 -196 0
-228 -258 0
-105 -258 0
-105 -228 0
-161 -180 0
-180 -191 0
-180 -214 0
-156 -180 0
-161 -191 0
-161 -214 0
-156 -161 0
-191 -214 0
-156 -191 0
-156 -214 0
-164 -195 0
-164 -263 0
-164 -256 0
-195 -263 0
-195 -256 0
-256 -263 0
-128 -175 0
-81 -175 0
-175 -311 0
-81 -128 0
-128 -311 0
-81 -311 0
-216 -286 0
-259 -265 0
-126 -213 0
-66 -213 0
-181 -213 0
-103 -213 0
-66 -126 0
-126 -181 0
-103 -126 0
-66 -181 0
-66 -103 0
-103 -181 0
-163 -166 0
-166 -174 0
-162 -166 0
-166 -237 0
-163 -174 0
-162 -163 0
-163 -237 0
-162 -174 0
-174 -237 0
-162 -237 0
-194 -197 0
-129 -197 0
-192 -197 0
-197 -313 0
-129 -194 0
-192 -194 0
-194 -313 0
-129 -192 0
-129 -313 0
-192 -313 0
-166 -213 0
-197 -213 0
-166 -197 0
-126 -216 0
-163 -216 0
-194 -216 0
-126 -163 0
-126 -194 0
-163 -194 0
-66 -286 0
-174 -286 0
-129 -286 0
-66 -174 0
-66 -129 0
-129 -174 0
-181 -259 0
-162 -259 0
-192 -259 0
-162 -181 0
-181 -192 0
-162 -192 0
-103 -265 0
-237 -265 0
-265 -313 0
-103 -237 0
-103 -313 0
-237 -313 0
-78 -314 0
-78 -185 0
-63 -78 0
-78 -199 0
-185 -314 0
-63 -314 0
-199 -314 0
-63 -185 0
-185 -199 0
-63 -199 0
-97 -115 0
-52 -115 0
-92 -115 0
-90 -115 0
-52 -97 0
-92 -97 0
-90 -97 0
-52 -92 0
-52 -90 0
-90 -92 0
-51 -75 0
-51 -69 0
-51 -182 0
-51 -179 0
-51 -61 0
-51 -59 0
-69 -75 0
-75 -182 0
-75 -179 0
-61 -75 0
-59 -75 0
-69 -182 0
-69 -179 0
-61 -69 0
-59 -69 0
-179 -182 0
-61 -182 0
-59 -182 0
-61 -179 0
-59 -179 0
-59 -61 0
-172 -224 0
-172 -229 0
-50 -172 0
-49 -172 0
-172 -233 0
-172 -238 0
-224 -229 0
-50 -224 0
-49 -224 0
-224 -233 0
-224 -238 0
-50 -229 0
-49 -229 0
-229 -233 0
-229 -238 0
-49 -50 0
-50 -233 0
-50 -238 0
-49 -233 0
-49 -238 0
-233 -238 0
-244 -250 0
-100 -244 0
-123 -244 0
-48 -244 0
-47 -244 0
-244 -266 0
-100 -250 0
-123 -250 0
-48 -250 0
-47 -250 0
-250 -266 0
-100 -123 0
-48 -100 0
-47 -100 0
-100 -266 0
-48 -123 0
-47 -123 0
-123 -266 0
-47 -48 0
-48 -266 0
-47 -266 0
-46 -278 0
-231 -278 0
-217 -278 0
-278 -285 0
-46 -231 0
-46 -217 0
-46 -285 0
-217 -231 0
-231 -285 0
-217 -285 0
-293 -294 0
-293 -297 0
-293 -299 0
-45 -293 0
-294 -297 0
-294 -299 0
-45 -294 0
-297 -299 0
-45 -297 0
-45 -299 0
-78 -115 0
-51 -78 0
-78 -172 0
-78 -244 0
-51 -115 0
-115 -172 0
-115 -244 0
-51 -172 0
-51 -244 0
-172 -244 0
-97 -314 0
-75 -314 0
-224 -314 0
-250 -314 0
-75 -97 0
-97 -224 0
-97 -250 0
-75 -224 0
-75 -250 0
-224 -250 0
-52 -185 0
-69 -185 0
-185 -229 0
-100 -185 0
-185 -278 0
-185 -293 0
-52 -69 0
-52 -229 0
-52 -100 0
-52 -278 0
-52 -293 0
-69 -229 0
-69 -100 0
-69 -278 0
-69 -293 0
-100 -229 0
-229 -278 0
-229 -293 0
-100 -278 0
-100 -293 0
-278 -293 0
-63 -92 0
-63 -182 0
-50 -63 0
-63 -123 0
-46 -63 0
-63 -294 0
-92 -182 0
-50 -92 0
-92 -123 0
-46 -92 0
-92 -294 0
-50 -182 0
-123 -182 0
-46 -182 0
-182 -294 0
-50 -123 0
-46 -50 0
-50 -294 0
-46 -123 0
-123 -294 0
-46 -294 0
-90 -199 0
-179 -199 0
-49 -199 0
-48 -199 0
-199 -231 0
-199 -297 0
-90 -179 0
-49 -90 0
-48 -90 0
-90 -231 0
-90 -297 0
-49 -179 0
-48 -179 0
-179 -231 0
-179 -297 0
-48 -49 0
-49 -231 0
-49 -297 0
-48 -231 0
-48 -297 0
-231 -297 0
-61 -233 0
-47 -61 0
-61 -217 0
-61 -299 0
-47 -233 0
-217 -233 0
-233 -299 0
-47 -217 0
-47 -299 0
-217 -299 0
-59 -238 0
-59 -266 0
-59 -285 0
-45 -59 0
-238 -266 0
-238 -285 0
-45 -238 0
-266 -285 0
-45 -266 0
-45 -285 0
-44 -73 0
-44 -64 0
-44 -114 0
-64 -73 0
-73 -114 0
-64 -114 0
-111 -245 0
-245 -252 0
-43 -245 0
-111 -252 0
-43 -111 0
-43 -252 0
-184 -200 0
-42 -184 0
-184 -281 0
-42 -200 0
-200 -281 0
-42 -281 0
-41 -291 0
-41 -295 0
-41 -98 0
-291 -295 0
-98 -291 0
-98 -295 0
-44 -245 0
-44 -184 0
-41 -44 0
-184 -245 0
-41 -245 0
-41 -184 0
-73 -111 0
-73 -200 0
-73 -291 0
-111 -200 0
-111 -291 0
-200 -291 0
-64 -252 0
-42 -64 0
-64 -295 0
-42 -252 0
-252 -295 0
-42 -295 0
-43 -114 0
-114 -281 0
-98 -114 0
-43 -281 0
-43 -98 0
-98 -281 0
-170 -187 0
-40 -187 0
-186 -187 0
-147 -187 0
-141 -187 0
-187 -208 0
-95 -187 0
-187 -193 0
-40 -170 0
-170 -186 0
-147 -170 0
-141 -170 0
-170 -208 0
-95 -170 0
-170 -193 0
-40 -186 0
-40 -147 0
-40 -141 0
-40 -208 0
-40 -95 0
-40 -193 0
-147 -186 0
-141 -186 0
-186 -208 0
-95 -186 0
-186 -193 0
-141 -147 0
-147 -208 0
-95 -147 0
-147 -193 0
-141 -208 0
-95 -141 0
-141 -193 0
-95 -208 0
-193 -208 0
-95 -193 0
-206 -221 0
-206 -288 0
-132 -206 0
-206 -220 0
-38 -206 0
-204 -206 0
-37 -206 0
-118 -206 0
-221 -288 0
-132 -221 0
-220 -221 0
-38 -221 0
-204 -221 0
-37 -221 0
-118 -221 0
-132 -288 0
-220 -288 0
-38 -288 0
-204 -288 0
-37 -288 0
-118 -288 0
-132 -220 0
-38 -132 0
-132 -204 0
-37 -132 0
-118 -132 0
-38 -220 0
-204 -220 0
-37 -220 0
-118 -220 0
-38 -204 0
-37 -38 0
-38 -118 0
-37 -204 0
-118 -204 0
-37 -118 0
-104 -112 0
-112 -155 0
-36 -112 0
-91 -112 0
-89 -112 0
-35 -112 0
-83 -112 0
-80 -112 0
-104 -155 0
-36 -104 0
-91 -104 0
-89 -104 0
-35 -104 0
-83 -104 0
-80 -104 0
-36 -155 0
-91 -155 0
-89 -155 0
-35 -155 0
-83 -155 0
-80 -155 0
-36 -91 0
-36 -89 0
-35 -36 0
-36 -83 0
-36 -80 0
-89 -91 0
-35 -91 0
-83 -91 0
-80 -91 0
-35 -89 0
-83 -89 0
-80 -89 0
-35 -83 0
-35 -80 0
-80 -83 0
-33 -34 0
-34 -71 0
-34 -67 0
-34 -183 0
-34 -149 0
-34 -142 0
-32 -34 0
-34 -58 0
-33 -71 0
-33 -67 0
-33 -183 0
-33 -149 0
-33 -142 0
-32 -33 0
-33 -58 0
-67 -71 0
-71 -183 0
-71 -149 0
-71 -142 0
-32 -71 0
-58 -71 0
-67 -183 0
-67 -149 0
-67 -142 0
-32 -67 0
-58 -67 0
-149 -183 0
-142 -183 0
-32 -183 0
-58 -183 0
-142 -149 0
-32 -149 0
-58 -149 0
-32 -142 0
-58 -142 0
-32 -58 0
-53 -55 0
-55 -225 0
-55 -211 0
-31 -55 0
-30 -55 0
-55 -234 0
-29 -55 0
-55 -239 0
-53 -225 0
-53 -211 0
-31 -53 0
-30 -53 0
-53 -234 0
-29 -53 0
-53 -239 0
-211 -225 0
-31 -225 0
-30 -225 0
-225 -234 0
-29 -225 0
-225 -239 0
-31 -211 0
-30 -211 0
-211 -234 0
-29 -211 0
-211 -239 0
-30 -31 0
-31 -234 0
-29 -31 0
-31 -239 0
-30 -234 0
-29 -30 0
-30 -239 0
-29 -234 0
-234 -239 0
-29 -239 0
-154 -168 0
-107 -168 0
-133 -168 0
-168 -254 0
-28 -168 0
-27 -168 0
-168 -260 0
-168 -267 0
-107 -154 0
-133 -154 0
-154 -254 0
-28 -154 0
-27 -154 0
-154 -260 0
-154 -267 0
-107 -133 0
-107 -254 0
-28 -107 0
-27 -107 0
-107 -260 0
-107 -267 0
-133 -254 0
-28 -133 0
-27 -133 0
-133 -260 0
-133 -267 0
-28 -254 0
-27 -254 0
-254 -260 0
-254 -267 0
-27 -28 0
-28 -260 0
-28 -267 0
-27 -260 0
-27 -267 0
-260 -267 0
-26 -145 0
-145 -269 0
-25 -145 0
-145 -272 0
-24 -145 0
-145 -273 0
-109 -145 0
-23 -145 0
-26 -269 0
-25 -26 0
-26 -272 0
-24 -26 0
-26 -273 0
-26 -109 0
-23 -26 0
-25 -269 0
-269 -272 0
-24 -269 0
-269 -273 0
-109 -269 0
-23 -269 0
-25 -272 0
-24 -25 0
-25 -273 0
-25 -109 0
-23 -25 0
-24 -272 0
-272 -273 0
-109 -272 0
-23 -272 0
-24 -273 0
-24 -109 0
-23 -24 0
-109 -273 0
-23 -273 0
-23 -109 0
-21 -22 0
-22 -277 0
-22 -280 0
-20 -22 0
-22 -282 0
-22 -283 0
-22 -284 0
-22 -287 0
-21 -277 0
-21 -280 0
-20 -21 0
-21 -282 0
-21 -283 0
-21 -284 0
-21 -287 0
-277 -280 0
-20 -277 0
-277 -282 0
-277 -283 0
-277 -284 0
-277 -287 0
-20 -280 0
-280 -282 0
-280 -283 0
-280 -284 0
-280 -287 0
-20 -282 0
-20 -283 0
-20 -284 0
-20 -287 0
-282 -283 0
-282 -284 0
-282 -287 0
-283 -284 0
-283 -287 0
-284 -287 0
-19 -242 0
-19 -247 0
-19 -249 0
-19 -296 0
-19 -298 0
-19 -300 0
-18 -19 0
-17 -19 0
-242 -247 0
-242 -249 0
-242 -296 0
-242 -298 0
-242 -300 0
-18 -242 0
-17 -242 0
-247 -249 0
-247 -296 0
-247 -298 0
-247 -300 0
-18 -247 0
-17 -247 0
-249 -296 0
-249 -298 0
-249 -300 0
-18 -249 0
-17 -249 0
-296 -298 0
-296 -300 0
-18 -296 0
-17 -296 0
-298 -300 0
-18 -298 0
-17 -298 0
-18 -300 0
-17 -300 0
-17 -18 0
-187 -206 0
-112 -187 0
-34 -187 0
-55 -187 0
-168 -187 0
-145 -187 0
-22 -187 0
-19 -187 0
-112 -206 0
-34 -206 0
-55 -206 0
-168 -206 0
-145 -206 0
-22 -206 0
-19 -206 0
-34 -112 0
-55 -112 0
-112 -168 0
-112 -145 0
-22 -112 0
-19 -112 0
-34 -55 0
-34 -168 0
-34 -145 0
-22 -34 0
-19 -34 0
-55 -168 0
-55 -145 0
-22 -55 0
-19 -55 0
-145 -168 0
-22 -168 0
-19 -168 0
-22 -145 0
-19 -145 0
-19 -22 0
-170 -221 0
-104 -170 0
-33 -170 0
-53 -170 0
-154 -170 0
-26 -170 0
-21 -170 0
-170 -242 0
-104 -221 0
-33 -221 0
-53 -221 0
-154 -221 0
-26 -221 0
-21 -221 0
-221 -242 0
-33 -104 0
-53 -104 0
-104 -154 0
-26 -104 0
-21 -104 0
-104 -242 0
-33 -53 0
-33 -154 0
-26 -33 0
-21 -33 0
-33 -242 0
-53 -154 0
-26 -53 0
-21 -53 0
-53 -242 0
-26 -154 0
-21 -154 0
-154 -242 0
-21 -26 0
-26 -242 0
-21 -242 0
-40 -288 0
-40 -155 0
-40 -71 0
-40 -225 0
-40 -107 0
-40 -269 0
-40 -277 0
-40 -247 0
-155 -288 0
-71 -288 0
-225 -288 0
-107 -288 0
-269 -288 0
-277 -288 0
-247 -288 0
-71 -155 0
-155 -225 0
-107 -155 0
-155 -269 0
-155 -277 0
-155 -247 0
-71 -225 0
-71 -107 0
-71 -269 0
-71 -277 0
-71 -247 0
-107 -225 0
-225 -269 0
-225 -277 0
-225 -247 0
-107 -269 0
-107 -277 0
-107 -247 0
-269 -277 0
-247 -269 0
-247 -277 0
-132 -186 0
-36 -186 0
-67 -186 0
-186 -211 0
-133 -186 0
-25 -186 0
-186 -280 0
-186 -249 0
-36 -132 0
-67 -132 0
-132 -211 0
-132 -133 0
-25 -132 0
-132 -280 0
-132 -249 0
-36 -67 0
-36 -211 0
-36 -133 0
-25 -36 0
-36 -280 0
-36 -249 0
-67 -211 0
-67 -133 0
-25 -67 0
-67 -280 0
-67 -249 0
-133 -211 0
-25 -211 0
-211 -280 0
-211 -249 0
-25 -133 0
-133 -280 0
-133 -249 0
-25 -280 0
-25 -249 0
-249 -280 0
-147 -220 0
-91 -147 0
-147 -183 0
-31 -147 0
-147 -254 0
-147 -272 0
-20 -147 0
-147 -296 0
-91 -220 0
-183 -220 0
-31 -220 0
-220 -254 0
-220 -272 0
-20 -220 0
-220 -296 0
-91 -183 0
-31 -91 0
-91 -254 0
-91 -272 0
-20 -91 0
-91 -296 0
-31 -183 0
-183 -254 0
-183 -272 0
-20 -183 0
-183 -296 0
-31 -254 0
-31 -272 0
-20 -31 0
-31 -296 0
-254 -272 0
-20 -254 0
-254 -296 0
-20 -272 0
-272 -296 0
-20 -296 0
-38 -141 0
-89 -141 0
-141 -149 0
-30 -141 0
-28 -141 0
-24 -141 0
-141 -282 0
-141 -298 0
-38 -89 0
-38 -149 0
-30 -38 0
-28 -38 0
-24 -38 0
-38 -282 0
-38 -298 0
-89 -149 0
-30 -89 0
-28 -89 0
-24 -89 0
-89 -282 0
-89 -298 0
-30 -149 0
-28 -149 0
-24 -149 0
-149 -282 0
-149 -298 0
-28 -30 0
-24 -30 0
-30 -282 0
-30 -298 0
-24 -28 0
-28 -282 0
-28 -298 0
-24 -282 0
-24 -298 0
-282 -298 0
-204 -208 0
-35 -208 0
-142 -208 0
-208 -234 0
-27 -208 0
-208 -273 0
-208 -283 0
-208 -300 0
-35 -204 0
-142 -204 0
-204 -234 0
-27 -204 0
-204 -273 0
-204 -283 0
-204 -300 0
-35 -142 0
-35 -234 0
-27 -35 0
-35 -273 0
-35 -283 0
-35 -300 0
-142 -234 0
-27 -142 0
-142 -273 0
-142 -283 0
-142 -300 0
-27 -234 0
-234 -273 0
-234 -283 0
-234 -300 0
-27 -273 0
-27 -283 0
-27 -300 0
-273 -283 0
-273 -300 0
-283 -300 0
-37 -95 0
-83 -95 0
-32 -95 0
-29 -95 0
-95 -260 0
-95 -109 0
-95 -284 0
-18 -95 0
-37 -83 0
-32 -37 0
-29 -37 0
-37 -260 0
-37 -109 0
-37 -284 0
-18 -37 0
-32 -83 0
-29 -83 0
-83 -260 0
-83 -109 0
-83 -284 0
-18 -83 0
-29 -32 0
-32 -260 0
-32 -109 0
-32 -284 0
-18 -32 0
-29 -260 0
-29 -109 0
-29 -284 0
-18 -29 0
-109 -260 0
-260 -284 0
-18 -260 0
-109 -284 0
-18 -109 0
-18 -284 0
-118 -193 0
-80 -193 0
-58 -193 0
-193 -239 0
-193 -267 0
-23 -193 0
-193 -287 0
-17 -193 0
-80 -118 0
-58 -118 0
-118 -239 0
-118 -267 0
-23 -118 0
-118 -287 0
-17 -118 0
-58 -80 0
-80 -239 0
-80 -267 0
-23 -80 0
-80 -287 0
-17 -80 0
-58 -239 0
-58 -267 0
-23 -58 0
-58 -287 0
-17 -58 0
-239 -267 0
-23 -239 0
-239 -287 0
-17 -239 0
-23 -267 0
-267 -287 0
-17 -267 0
-23 -287 0
-17 -23 0
-17 -287 0
-16 -274 0
-124 -274 0
-189 -274 0
-201 -274 0
-16 -124 0
-16 -189 0
-16 -201 0
-124 -189 0
-124 -201 0
-189 -201 0
-140 -160 0
-14 -140 0
-140 -212 0
-131 -140 0
-14 -160 0
-160 -212 0
-131 -160 0
-14 -212 0
-14 -131 0
-131 -212 0
-13 -203 0
-13 -65 0
-13 -117 0
-13 -101 0
-12 -13 0
-13 -57 0
-65 -203 0
-117 -203 0
-101 -203 0
-12 -203 0
-57 -203 0
-65 -117 0
-65 -101 0
-12 -65 0
-57 -65 0
-101 -117 0
-12 -117 0
-57 -117 0
-12 -101 0
-57 -101 0
-12 -57 0
-87 -227 0
-87 -148 0
-11 -87 0
-87 -235 0
-10 -87 0
-87 -240 0
-148 -227 0
-11 -227 0
-227 -235 0
-10 -227 0
-227 -240 0
-11 -148 0
-148 -235 0
-10 -148 0
-148 -240 0
-11 -235 0
-10 -11 0
-11 -240 0
-10 -235 0
-235 -240 0
-10 -240 0
-153 -251 0
-127 -153 0
-153 -257 0
-9 -153 0
-153 -262 0
-153 -268 0
-127 -251 0
-251 -257 0
-9 -251 0
-251 -262 0
-251 -268 0
-127 -257 0
-9 -127 0
-127 -262 0
-127 -268 0
-9 -257 0
-257 -262 0
-257 -268 0
-9 -262 0
-9 -268 0
-262 -268 0
-8 -171 0
-8 -188 0
-8 -169 0
-8 -39 0
-171 -188 0
-169 -171 0
-39 -171 0
-169 -188 0
-39 -188 0
-39 -169 0
-94 -209 0
-205 -209 0
-209 -222 0
-209 -289 0
-94 -205 0
-94 -222 0
-94 -289 0
-205 -222 0
-205 -289 0
-222 -289 0
-140 -274 0
-13 -274 0
-87 -274 0
-153 -274 0
-13 -140 0
-87 -140 0
-140 -153 0
-13 -87 0
-13 -153 0
-87 -153 0
-16 -160 0
-16 -203 0
-16 -227 0
-16 -251 0
-160 -203 0
-160 -227 0
-160 -251 0
-203 -227 0
-203 -251 0
-227 -251 0
-65 -148 0
-65 -127 0
-8 -65 0
-65 -209 0
-127 -148 0
-8 -148 0
-148 -209 0
-8 -127 0
-127 -209 0
-8 -209 0
-11 -117 0
-117 -257 0
-117 -171 0
-94 -117 0
-11 -257 0
-11 -171 0
-11 -94 0
-171 -257 0
-94 -257 0
-94 -171 0
-14 -124 0
-101 -124 0
-124 -235 0
-9 -124 0
-124 -188 0
-124 -205 0
-14 -101 0
-14 -235 0
-9 -14 0
-14 -188 0
-14 -205 0
-101 -235 0
-9 -101 0
-101 -188 0
-101 -205 0
-9 -235 0
-188 -235 0
-205 -235 0
-9 -188 0
-9 -205 0
-188 -205 0
-189 -212 0
-12 -189 0
-10 -189 0
-189 -262 0
-169 -189 0
-189 -222 0
-12 -212 0
-10 -212 0
-212 -262 0
-169 -212 0
-212 -222 0
-10 -12 0
-12 -262 0
-12 -169 0
-12 -222 0
-10 -262 0
-10 -169 0
-10 -222 0
-169 -262 0
-222 -262 0
-169 -222 0
-131 -201 0
-57 -201 0
-201 -240 0
-201 -268 0
-39 -201 0
-201 -289 0
-57 -131 0
-131 -240 0
-131 -268 0
-39 -131 0
-131 -289 0
-57 -240 0
-57 -268 0
-39 -57 0
-57 -289 0
-240 -268 0
-39 -240 0
-240 -289 0
-39 -268 0
-268 -289 0
-39 -289 0
-7 -70 0
-70 -178 0
-70 -138 0
-70 -173 0
-70 -202 0
-7 -178 0
-7 -138 0
-7 -173 0
-7 -202 0
-138 -178 0
-173 -178 0
-178 -202 0
-138 -173 0
-138 -202 0
-173 -202 0
-6 -215 0
-6 -218 0
-5 -6 0
-4 -6 0
-6 -116 0
-215 -218 0
-5 -215 0
-4 -215 0
-116 -215 0
-5 -218 0
-4 -218 0
-116 -218 0
-4 -5 0
-5 -116 0
-4 -116 0
-99 -122 0
-3 -99 0
-86 -99 0
-82 -99 0
-79 -99 0
-3 -122 0
-86 -122 0
-82 -122 0
-79 -122 0
-3 -86 0
-3 -82 0
-3 -79 0
-82 -86 0
-79 -86 0
-79 -82 0
-2 -230 0
-1 -271 0
-1 -275 0
-1 -15 0
-271 -275 0
-15 -271 0
-15 -275 0
-290 -292 0
-139 -290 0
-159 -290 0
-139 -292 0
-159 -292 0
-139 -159 0
-6 -70 0
-70 -99 0
-1 -70 0
-70 -290 0
-6 -99 0
-1 -6 0
-6 -290 0
-1 -99 0
-99 -290 0
-1 -290 0
-7 -215 0
-7 -122 0
-7 -271 0
-7 -292 0
-122 -215 0
-215 -271 0
-215 -292 0
-122 -271 0
-122 -292 0
-271 -292 0
-178 -218 0
-3 -178 0
-178 -230 0
-3 -218 0
-218 -230 0
-3 -230 0
-5 -138 0
-86 -138 0
-2 -138 0
-5 -86 0
-2 -5 0
-2 -86 0
-4 -173 0
-82 -173 0
-173 -275 0
-139 -173 0
-4 -82 0
-4 -275 0
-4 -139 0
-82 -275 0
-82 -139 0
-139 -275 0
-116 -202 0
-79 -202 0
-15 -202 0
-159 -202 0
-79 -116 0
-15 -116 0
-116 -159 0
-15 -79 0
-79 -159 0
-15 -159 0
-74 -301 0
-74 -302 0
-74 -151 0
-74 -110 0
-74 -137 0
-301 -302 0
-151 -301 0
-110 -301 0
-137 -301 0
-151 -302 0
-110 -302 0
-137 -302 0
-110 -151 0
-137 -151 0
-110 -137 0
-72 -158 0
-68 -158 0
-54 -158 0
-158 -226 0
-158 -210 0
-158 -255 0
-106 -158 0
-158 -310 0
-68 -72 0
-54 -72 0
-72 -226 0
-72 -210 0
-72 -255 0
-72 -106 0
-72 -310 0
-54 -68 0
-68 -226 0
-68 -210 0
-68 -255 0
-68 -106 0
-68 -310 0
-54 -226 0
-54 -210 0
-54 -255 0
-54 -106 0
-54 -310 0
-210 -226 0
-226 -255 0
-106 -226 0
-226 -310 0
-210 -255 0
-106 -210 0
-210 -310 0
-106 -255 0
-255 -310 0
-106 -310 0
-102 -125 0
-88 -125 0
-125 -236 0
-125 -152 0
-125 -312 0
-88 -102 0
-102 -236 0
-102 -152 0
-102 -312 0
-88 -236 0
-88 -152 0
-88 -312 0
-152 -236 0
-236 -312 0
-152 -312 0
-78 -314 0
-78 -115 0
-78 -97 0
-115 -314 0
-97 -314 0
-97 -115 0
-170 -187 0
-40 -187 0
-187 -206 0
-187 -221 0
-187 -288 0
-112 -187 0
-104 -187 0
-155 -187 0
-40 -170 0
-170 -206 0
-170 -221 0
-170 -288 0
-112 -170 0
-104 -170 0
-155 -170 0
-40 -206 0
-40 -221 0
-40 -288 0
-40 -112 0
-40 -104 0
-40 -155 0
-206 -221 0
-206 -288 0
-112 -206 0
-104 -206 0
-155 -206 0
-221 -288 0
-112 -221 0
-104 -221 0
-155 -221 0
-112 -288 0
-104 -288 0
-155 -288 0
-104 -112 0
-112 -155 0
-104 -155 0
-16 -274 0
-140 -274 0
-160 -274 0
-16 -140 0
-16 -160 0
-140 -160 0
-7 -70 0
-6 -70 0
-70 -215 0
-70 -99 0
-70 -122 0
-6 -7 0
-7 -215 0
-7 -99 0
-7 -122 0
-6 -215 0
-6 -99 0
-6 -122 0
-99 -215 0
-122 -215 0
-99 -122 0
-120 -135 0
-135 -146 0
-135 -219 0
-135 -253 0
-135 -190 0
-120 -146 0
-120 -219 0
-120 -253 0
-120 -190 0
-146 -219 0
-146 -253 0
-146 -190 0
-219 -253 0
-190 -219 0
-190 -253 0
-150 -157 0
-96 -150 0
-96 -157 0
-165 -180 0
-165 -196 0
-161 -165 0
-165 -258 0
-165 -191 0
-180 -196 0
-161 -180 0
-180 -258 0
-180 -191 0
-161 -196 0
-196 -258 0
-191 -196 0
-161 -258 0
-161 -191 0
-191 -258 0
-216 -286 0
-63 -185 0
-185 -199 0
-52 -185 0
-92 -185 0
-90 -185 0
-63 -199 0
-52 -63 0
-63 -92 0
-63 -90 0
-52 -199 0
-92 -199 0
-90 -199 0
-52 -92 0
-52 -90 0
-90 -92 0
-147 -186 0
-141 -186 0
-132 -186 0
-186 -220 0
-38 -186 0
-36 -186 0
-91 -186 0
-89 -186 0
-141 -147 0
-132 -147 0
-147 -220 0
-38 -147 0
-36 -147 0
-91 -147 0
-89 -147 0
-132 -141 0
-141 -220 0
-38 -141 0
-36 -141 0
-91 -141 0
-89 -141 0
-132 -220 0
-38 -132 0
-36 -132 0
-91 -132 0
-89 -132 0
-38 -220 0
-36 -220 0
-91 -220 0
-89 -220 0
-36 -38 0
-38 -91 0
-38 -89 0
-36 -91 0
-36 -89 0
-89 -91 0
-138 -178 0
-178 -218 0
-5 -178 0
-3 -178 0
-86 -178 0
-138 -218 0
-5 -138 0
-3 -138 0
-86 -138 0
-5 -218 0
-3 -218 0
-86 -218 0
-3 -5 0
-5 -86 0
-3 -86 0
-119 -134 0
-134 -177 0
-134 -303 0
-134 -304 0
-84 -134 0
-119 -177 0
-119 -303 0
-119 -304 0
-84 -119 0
-177 -303 0
-177 -304 0
-84 -177 0
-303 -304 0
-84 -303 0
-84 -304 0
-56 -130 0
-130 -223 0
-130 -167 0
-130 -261 0
-130 -144 0
-56 -223 0
-56 -167 0
-56 -261 0
-56 -144 0
-167 -223 0
-223 -261 0
-144 -223 0
-167 -261 0
-144 -167 0
-144 -261 0
-164 -175 0
-164 -195 0
-128 -164 0
-164 -263 0
-81 -164 0
-175 -195 0
-128 -175 0
-175 -263 0
-81 -175 0
-128 -195 0
-195 -263 0
-81 -195 0
-128 -263 0
-81 -128 0
-81 -263 0
-95 -208 0
-193 -208 0
-204 -208 0
-37 -208 0
-118 -208 0
-35 -208 0
-83 -208 0
-80 -208 0
-95 -193 0
-95 -204 0
-37 -95 0
-95 -118 0
-35 -95 0
-83 -95 0
-80 -95 0
-193 -204 0
-37 -193 0
-118 -193 0
-35 -193 0
-83 -193 0
-80 -193 0
-37 -204 0
-118 -204 0
-35 -204 0
-83 -204 0
-80 -204 0
-37 -118 0
-35 -37 0
-37 -83 0
-37 -80 0
-35 -118 0
-83 -118 0
-80 -118 0
-35 -83 0
-35 -80 0
-80 -83 0
-124 -189 0
-124 -201 0
-14 -124 0
-124 -212 0
-124 -131 0
-189 -201 0
-14 -189 0
-189 -212 0
-131 -189 0
-14 -201 0
-201 -212 0
-131 -201 0
-14 -212 0
-14 -131 0
-131 -212 0
-173 -202 0
-4 -173 0
-116 -173 0
-82 -173 0
-79 -173 0
-4 -202 0
-116 -202 0
-82 -202 0
-79 -202 0
-4 -116 0
-4 -82 0
-4 -79 0
-82 -116 0
-79 -116 0
-79 -82 0
-77 -305 0
-198 -305 0
-85 -305 0
-77 -198 0
-77 -85 0
-85 -198 0
-270 -308 0
-176 -308 0
-241 -308 0
-246 -308 0
-248 -308 0
-176 -270 0
-241 -270 0
-246 -270 0
-248 -270 0
-176 -241 0
-176 -246 0
-176 -248 0
-241 -246 0
-241 -248 0
-246 -248 0
-93 -207 0
-93 -243 0
-93 -113 0
-207 -243 0
-113 -207 0
-113 -243 0
-51 -75 0
-51 -172 0
-51 -224 0
-51 -244 0
-51 -250 0
-75 -172 0
-75 -224 0
-75 -244 0
-75 -250 0
-172 -224 0
-172 -244 0
-172 -250 0
-224 -244 0
-224 -250 0
-244 -250 0
-44 -73 0
-44 -245 0
-44 -111 0
-73 -245 0
-73 -111 0
-111 -245 0
-33 -34 0
-34 -71 0
-34 -55 0
-34 -53 0
-34 -225 0
-34 -168 0
-34 -154 0
-34 -107 0
-33 -71 0
-33 -55 0
-33 -53 0
-33 -225 0
-33 -168 0
-33 -154 0
-33 -107 0
-55 -71 0
-53 -71 0
-71 -225 0
-71 -168 0
-71 -154 0
-71 -107 0
-53 -55 0
-55 -225 0
-55 -168 0
-55 -154 0
-55 -107 0
-53 -225 0
-53 -168 0
-53 -154 0
-53 -107 0
-168 -225 0
-154 -225 0
-107 -225 0
-154 -168 0
-107 -168 0
-107 -154 0
-13 -203 0
-13 -87 0
-13 -227 0
-13 -153 0
-13 -251 0
-87 -203 0
-203 -227 0
-153 -203 0
-203 -251 0
-87 -227 0
-87 -153 0
-87 -251 0
-153 -227 0
-227 -251 0
-153 -251 0
-214 -228 0
-105 -228 0
-156 -228 0
-105 -214 0
-156 -214 0
-105 -156 0
-69 -182 0
-69 -179 0
-69 -229 0
-50 -69 0
-49 -69 0
-69 -100 0
-69 -123 0
-48 -69 0
-179 -182 0
-182 -229 0
-50 -182 0
-49 -182 0
-100 -182 0
-123 -182 0
-48 -182 0
-179 -229 0
-50 -179 0
-49 -179 0
-100 -179 0
-123 -179 0
-48 -179 0
-50 -229 0
-49 -229 0
-100 -229 0
-123 -229 0
-48 -229 0
-49 -50 0
-50 -100 0
-50 -123 0
-48 -50 0
-49 -100 0
-49 -123 0
-48 -49 0
-100 -123 0
-48 -100 0
-48 -123 0
-64 -114 0
-64 -252 0
-43 -64 0
-114 -252 0
-43 -114 0
-43 -252 0
-67 -183 0
-67 -149 0
-67 -211 0
-31 -67 0
-30 -67 0
-67 -133 0
-67 -254 0
-28 -67 0
-149 -183 0
-183 -211 0
-31 -183 0
-30 -183 0
-133 -183 0
-183 -254 0
-28 -183 0
-149 -211 0
-31 -149 0
-30 -149 0
-133 -149 0
-149 -254 0
-28 -149 0
-31 -211 0
-30 -211 0
-133 -211 0
-211 -254 0
-28 -211 0
-30 -31 0
-31 -133 0
-31 -254 0
-28 -31 0
-30 -133 0
-30 -254 0
-28 -30 0
-133 -254 0
-28 -133 0
-28 -254 0
-65 -117 0
-65 -148 0
-11 -65 0
-65 -127 0
-65 -257 0
-117 -148 0
-11 -117 0
-117 -127 0
-117 -257 0
-11 -148 0
-127 -148 0
-148 -257 0
-11 -127 0
-11 -257 0
-127 -257 0
-2 -230 0
-62 -143 0
-62 -232 0
-62 -306 0
-143 -232 0
-143 -306 0
-232 -306 0
-60 -108 0
-108 -309 0
-108 -264 0
-60 -309 0
-60 -264 0
-264 -309 0
-259 -265 0
-59 -61 0
-61 -233 0
-61 -238 0
-47 -61 0
-61 -266 0
-59 -233 0
-59 -238 0
-47 -59 0
-59 -266 0
-233 -238 0
-47 -233 0
-233 -266 0
-47 -238 0
-238 -266 0
-47 -266 0
-32 -142 0
-58 -142 0
-142 -234 0
-29 -142 0
-142 -239 0
-27 -142 0
-142 -260 0
-142 -267 0
-32 -58 0
-32 -234 0
-29 -32 0
-32 -239 0
-27 -32 0
-32 -260 0
-32 -267 0
-58 -234 0
-29 -58 0
-58 -239 0
-27 -58 0
-58 -260 0
-58 -267 0
-29 -234 0
-234 -239 0
-27 -234 0
-234 -260 0
-234 -267 0
-29 -239 0
-27 -29 0
-29 -260 0
-29 -267 0
-27 -239 0
-239 -260 0
-239 -267 0
-27 -260 0
-27 -267 0
-260 -267 0
-12 -101 0
-57 -101 0
-101 -235 0
-10 -101 0
-101 -240 0
-9 -101 0
-101 -262 0
-101 -268 0
-12 -57 0
-12 -235 0
-10 -12 0
-12 -240 0
-9 -12 0
-12 -262 0
-12 -268 0
-57 -235 0
-10 -57 0
-57 -240 0
-9 -57 0
-57 -262 0
-57 -268 0
-10 -235 0
-235 -240 0
-9 -235 0
-235 -262 0
-235 -268 0
-10 -240 0
-9 -10 0
-10 -262 0
-10 -268 0
-9 -240 0
-240 -262 0
-240 -268 0
-9 -262 0
-9 -268 0
-262 -268 0
-121 -136 0
-136 -276 0
-121 -276 0
-166 -213 0
-197 -213 0
-166 -197 0
-184 -200 0
-41 -184 0
-184 -291 0
-41 -200 0
-200 -291 0
-41 -291 0
-26 -145 0
-145 -269 0
-22 -145 0
-21 -145 0
-145 -277 0
-19 -145 0
-145 -242 0
-145 -247 0
-26 -269 0
-22 -26 0
-21 -26 0
-26 -277 0
-19 -26 0
-26 -242 0
-26 -247 0
-22 -269 0
-21 -269 0
-269 -277 0
-19 -269 0
-242 -269 0
-247 -269 0
-21 -22 0
-22 -277 0
-19 -22 0
-22 -242 0
-22 -247 0
-21 -277 0
-19 -21 0
-21 -242 0
-21 -247 0
-19 -277 0
-242 -277 0
-247 -277 0
-19 -242 0
-19 -247 0
-242 -247 0
-1 -271 0
-1 -290 0
-1 -292 0
-271 -290 0
-271 -292 0
-290 -292 0
-76 -307 0
-66 -126 0
-126 -163 0
-126 -174 0
-126 -194 0
-126 -129 0
-66 -163 0
-66 -174 0
-66 -194 0
-66 -129 0
-163 -174 0
-163 -194 0
-129 -163 0
-174 -194 0
-129 -174 0
-129 -194 0
-46 -278 0
-231 -278 0
-278 -293 0
-278 -294 0
-278 -297 0
-46 -231 0
-46 -293 0
-46 -294 0
-46 -297 0
-231 -293 0
-231 -294 0
-231 -297 0
-293 -294 0
-293 -297 0
-294 -297 0
-42 -281 0
-42 -295 0
-42 -98 0
-281 -295 0
-98 -281 0
-98 -295 0
-25 -272 0
-24 -25 0
-25 -280 0
-20 -25 0
-25 -282 0
-25 -249 0
-25 -296 0
-25 -298 0
-24 -272 0
-272 -280 0
-20 -272 0
-272 -282 0
-249 -272 0
-272 -296 0
-272 -298 0
-24 -280 0
-20 -24 0
-24 -282 0
-24 -249 0
-24 -296 0
-24 -298 0
-20 -280 0
-280 -282 0
-249 -280 0
-280 -296 0
-280 -298 0
-20 -282 0
-20 -249 0
-20 -296 0
-20 -298 0
-249 -282 0
-282 -296 0
-282 -298 0
-249 -296 0
-249 -298 0
-296 -298 0
-8 -171 0
-8 -209 0
-8 -94 0
-171 -209 0
-94 -171 0
-94 -209 0
-256 -311 0
-103 -181 0
-162 -181 0
-181 -237 0
-181 -192 0
-181 -313 0
-103 -162 0
-103 -237 0
-103 -192 0
-103 -313 0
-162 -237 0
-162 -192 0
-162 -313 0
-192 -237 0
-237 -313 0
-192 -313 0
-217 -285 0
-217 -299 0
-45 -217 0
-285 -299 0
-45 -285 0
-45 -299 0
-109 -273 0
-23 -273 0
-273 -283 0
-273 -284 0
-273 -287 0
-273 -300 0
-18 -273 0
-17 -273 0
-23 -109 0
-109 -283 0
-109 -284 0
-109 -287 0
-109 -300 0
-18 -109 0
-17 -109 0
-23 -283 0
-23 -284 0
-23 -287 0
-23 -300 0
-18 -23 0
-17 -23 0
-283 -284 0
-283 -287 0
-283 -300 0
-18 -283 0
-17 -283 0
-284 -287 0
-284 -300 0
-18 -284 0
-17 -284 0
-287 -300 0
-18 -287 0
-17 -287 0
-18 -300 0
-17 -300 0
-17 -18 0
-169 -188 0
-39 -188 0
-188 -205 0
-188 -222 0
-188 -289 0
-39 -169 0
-169 -205 0
-169 -222 0
-169 -289 0
-39 -205 0
-39 -222 0
-39 -289 0
-205 -222 0
-205 -289 0
-222 -289 0
-15 -275 0
-139 -275 0
-159 -275 0
-15 -139 0
-15 -159 0
-139 -159 0
